benchmarks_CP/INST_36x36/25/inst36x36_25_20.dzn
S=6;
start=[|
-1,	-1,	-1,	-1,	-1,	-1,	-1,	-1,	-1,	-1,	-1,	-1,	-1,	-1,	-1,	-1,	-1,	6,	-1,	-1,	-1,	-1,	7,	-1,	17,	-1,	-1,	27,	-1,	-1,	-1,	-1,	-1,	-1,	-1,	22|
-1,	-1,	-1,	-1,	1,	-1,	-1,	22,	-1,	-1,	-1,	-1,	-1,	-1,	-1,	25,	-1,	35,	-1,	-1,	-1,	-1,	-1,	-1,	-1,	-1,	-1,	20,	-1,	19,	-1,	6,	21,	33,	-1,	-1|
-1,	33,	-1,	-1,	-1,	5,	-1,	-1,	-1,	-1,	-1,	-1,	20,	-1,	-1,	-1,	-1,	-1,	25,	-1,	-1,	-1,	-1,	-1,	-1,	-1,	-1,	-1,	-1,	-1,	-1,	-1,	-1,	-1,	-1,	-1|
-1,	-1,	-1,	-1,	-1,	-1,	5,	10,	-1,	9,	-1,	-1,	21,	1,	-1,	-1,	-1,	-1,	-1,	-1,	11,	-1,	-1,	-1,	-1,	-1,	26,	-1,	-1,	-1,	-1,	-1,	-1,	12,	-1,	-1|
-1,	-1,	-1,	24,	-1,	-1,	-1,	-1,	-1,	-1,	25,	-1,	4,	-1,	17,	9,	34,	-1,	33,	-1,	-1,	-1,	-1,	-1,	-1,	-1,	-1,	-1,	-1,	-1,	-1,	16,	-1,	10,	-1,	3|
-1,	-1,	28,	-1,	16,	-1,	-1,	-1,	12,	-1,	-1,	-1,	-1,	36,	-1,	-1,	-1,	-1,	-1,	-1,	-1,	-1,	10,	-1,	-1,	-1,	-1,	-1,	-1,	11,	-1,	-1,	-1,	17,	-1,	-1|
-1,	16,	10,	-1,	-1,	-1,	-1,	-1,	-1,	-1,	27,	31,	-1,	-1,	-1,	5,	33,	-1,	-1,	20,	-1,	-1,	-1,	-1,	8,	-1,	-1,	-1,	19,	-1,	-1,	-1,	-1,	-1,	28,	-1|
-1,	-1,	-1,	-1,	-1,	9,	-1,	-1,	1,	-1,	-1,	22,	23,	-1,	-1,	-1,	-1,	-1,	-1,	-1,	-1,	-1,	-1,	6,	-1,	-1,	15,	-1,	-1,	-1,	-1,	-1,	-1,	-1,	-1,	-1|
-1,	-1,	-1,	33,	23,	-1,	26,	-1,	-1,	-1,	35,	-1,	-1,	12,	3,	-1,	-1,	31,	16,	-1,	-1,	-1,	-1,	-1,	13,	-1,	-1,	-1,	-1,	-1,	20,	1,	-1,	-1,	-1,	-1|
-1,	-1,	-1,	-1,	-1,	-1,	2,	-1,	19,	-1,	-1,	-1,	-1,	-1,	-1,	-1,	-1,	-1,	-1,	-1,	-1,	25,	27,	1,	11,	-1,	7,	6,	-1,	-1,	23,	-1,	-1,	-1,	-1,	-1|
-1,	-1,	21,	-1,	-1,	-1,	10,	-1,	9,	-1,	-1,	29,	-1,	-1,	30,	-1,	-1,	-1,	-1,	-1,	-1,	-1,	-1,	-1,	14,	-1,	-1,	28,	-1,	-1,	-1,	-1,	31,	-1,	-1,	18|
-1,	-1,	-1,	-1,	-1,	-1,	28,	-1,	-1,	-1,	-1,	-1,	-1,	-1,	-1,	-1,	-1,	-1,	-1,	-1,	-1,	32,	-1,	-1,	-1,	-1,	-1,	-1,	-1,	35,	15,	-1,	-1,	-1,	10,	13|
-1,	9,	22,	-1,	-1,	-1,	-1,	-1,	23,	-1,	18,	-1,	-1,	-1,	26,	-1,	-1,	15,	6,	33,	-1,	35,	-1,	-1,	-1,	-1,	-1,	-1,	-1,	-1,	-1,	-1,	-1,	-1,	11,	-1|
-1,	1,	12,	-1,	15,	6,	-1,	2,	20,	17,	-1,	-1,	-1,	-1,	4,	-1,	-1,	-1,	-1,	31,	-1,	13,	-1,	-1,	-1,	3,	-1,	-1,	5,	-1,	-1,	-1,	-1,	-1,	-1,	-1|
-1,	-1,	-1,	-1,	-1,	24,	-1,	-1,	-1,	-1,	-1,	-1,	2,	-1,	-1,	-1,	-1,	27,	-1,	16,	3,	1,	-1,	-1,	15,	-1,	-1,	-1,	-1,	-1,	19,	-1,	-1,	-1,	-1,	21|
-1,	-1,	11,	-1,	-1,	-1,	-1,	31,	15,	-1,	-1,	-1,	12,	6,	-1,	22,	-1,	-1,	-1,	23,	-1,	27,	-1,	-1,	-1,	-1,	-1,	-1,	20,	-1,	-1,	-1,	-1,	-1,	-1,	-1|
-1,	-1,	-1,	7,	-1,	-1,	-1,	-1,	-1,	-1,	32,	-1,	-1,	16,	21,	29,	-1,	30,	10,	-1,	17,	-1,	11,	18,	23,	-1,	-1,	-1,	-1,	12,	-1,	-1,	-1,	-1,	-1,	-1|
29,	-1,	-1,	-1,	30,	19,	21,	-1,	-1,	10,	11,	6,	-1,	-1,	-1,	-1,	-1,	-1,	-1,	12,	2,	-1,	-1,	-1,	7,	-1,	-1,	-1,	-1,	-1,	-1,	-1,	-1,	-1,	1,	28|
-1,	-1,	-1,	-1,	17,	-1,	4,	-1,	29,	-1,	-1,	26,	-1,	-1,	-1,	-1,	-1,	-1,	34,	8,	-1,	-1,	36,	-1,	-1,	-1,	-1,	-1,	-1,	-1,	-1,	-1,	20,	-1,	-1,	2|
-1,	2,	-1,	-1,	-1,	-1,	20,	11,	-1,	-1,	-1,	-1,	-1,	17,	-1,	-1,	-1,	-1,	-1,	-1,	31,	26,	-1,	-1,	27,	-1,	-1,	29,	-1,	-1,	-1,	-1,	-1,	-1,	5,	-1|
-1,	-1,	-1,	-1,	-1,	28,	-1,	8,	-1,	-1,	-1,	-1,	-1,	-1,	-1,	-1,	-1,	-1,	-1,	25,	-1,	7,	-1,	-1,	-1,	-1,	12,	-1,	-1,	-1,	4,	-1,	10,	9,	-1,	-1|
-1,	10,	-1,	-1,	31,	-1,	-1,	-1,	-1,	-1,	2,	-1,	-1,	-1,	-1,	-1,	-1,	-1,	32,	-1,	-1,	-1,	-1,	15,	-1,	-1,	-1,	8,	-1,	-1,	-1,	-1,	-1,	-1,	-1,	33|
19,	-1,	26,	14,	-1,	-1,	-1,	7,	32,	-1,	-1,	-1,	-1,	2,	-1,	-1,	27,	-1,	-1,	-1,	18,	10,	-1,	-1,	-1,	36,	-1,	-1,	-1,	-1,	-1,	-1,	-1,	-1,	-1,	-1|
-1,	-1,	-1,	12,	-1,	-1,	-1,	-1,	-1,	-1,	3,	10,	5,	30,	9,	-1,	-1,	-1,	14,	-1,	-1,	33,	-1,	-1,	35,	13,	17,	-1,	6,	-1,	-1,	-1,	28,	23,	31,	-1|
-1,	-1,	24,	-1,	13,	-1,	-1,	-1,	-1,	-1,	-1,	30,	1,	33,	34,	-1,	-1,	-1,	-1,	-1,	-1,	-1,	4,	-1,	2,	-1,	-1,	26,	-1,	32,	18,	-1,	-1,	-1,	-1,	-1|
-1,	6,	-1,	-1,	-1,	-1,	-1,	-1,	-1,	-1,	22,	-1,	-1,	7,	-1,	-1,	-1,	-1,	27,	-1,	-1,	8,	-1,	-1,	20,	-1,	-1,	-1,	-1,	-1,	-1,	34,	-1,	14,	-1,	32|
-1,	-1,	-1,	-1,	-1,	-1,	-1,	-1,	-1,	-1,	-1,	-1,	-1,	-1,	-1,	-1,	10,	-1,	-1,	-1,	7,	11,	-1,	-1,	-1,	-1,	-1,	13,	-1,	-1,	-1,	-1,	-1,	24,	-1,	-1|
15,	-1,	-1,	25,	-1,	-1,	-1,	-1,	-1,	-1,	-1,	17,	-1,	-1,	-1,	32,	-1,	5,	-1,	-1,	-1,	-1,	-1,	-1,	-1,	19,	-1,	-1,	-1,	-1,	-1,	-1,	-1,	-1,	-1,	31|
-1,	-1,	-1,	32,	-1,	-1,	-1,	-1,	-1,	19,	-1,	-1,	-1,	-1,	22,	27,	-1,	-1,	-1,	3,	-1,	-1,	6,	-1,	5,	12,	28,	-1,	-1,	14,	-1,	-1,	-1,	-1,	-1,	-1|
28,	22,	2,	-1,	-1,	-1,	-1,	-1,	-1,	-1,	-1,	1,	-1,	-1,	8,	-1,	-1,	-1,	-1,	-1,	-1,	31,	-1,	-1,	-1,	-1,	27,	10,	-1,	-1,	-1,	-1,	-1,	-1,	17,	-1|
-1,	3,	-1,	-1,	-1,	-1,	-1,	-1,	-1,	-1,	-1,	-1,	-1,	-1,	28,	7,	-1,	-1,	-1,	-1,	-1,	-1,	-1,	-1,	-1,	-1,	-1,	-1,	27,	-1,	11,	9,	-1,	-1,	13,	24|
-1,	15,	-1,	-1,	-1,	-1,	-1,	-1,	-1,	21,	1,	-1,	6,	24,	2,	36,	-1,	-1,	-1,	-1,	-1,	-1,	14,	-1,	-1,	23,	-1,	-1,	28,	-1,	22,	-1,	-1,	31,	12,	27|
-1,	5,	-1,	-1,	6,	14,	-1,	-1,	-1,	-1,	-1,	-1,	-1,	27,	-1,	8,	-1,	-1,	-1,	-1,	-1,	-1,	15,	30,	-1,	-1,	-1,	12,	-1,	13,	33,	-1,	-1,	1,	-1,	-1|
-1,	-1,	-1,	-1,	-1,	-1,	17,	-1,	6,	-1,	-1,	-1,	-1,	-1,	-1,	-1,	-1,	-1,	24,	26,	-1,	20,	33,	9,	-1,	15,	-1,	-1,	-1,	-1,	-1,	-1,	30,	-1,	-1,	-1|
-1,	-1,	-1,	-1,	-1,	-1,	-1,	-1,	-1,	-1,	-1,	-1,	-1,	4,	-1,	-1,	-1,	-1,	31,	-1,	-1,	6,	-1,	-1,	-1,	-1,	16,	-1,	-1,	-1,	8,	10,	-1,	-1,	3,	-1|
-1,	-1,	29,	-1,	35,	-1,	-1,	-1,	-1,	-1,	-1,	-1,	-1,	-1,	18,	-1,	-1,	-1,	-1,	-1,	-1,	-1,	25,	2,	3,	-1,	-1,	-1,	32,	-1,	-1,	-1,	-1,	-1,	6,	-1|];
